
  22   10
  10   10   10   10   10   10   10   10   10   10

   0   0   0   0   0   0   0   0   0   0   0   1 2 
  10  10  10  10  10  10  10  10  10  10  10   2 17 3 
   7  10  10  10  10  10  10  10  10  10  10   3 14 8 4 
  10  10  10  10  10  10  10  10  10  10  10   1 5 
   4  10  10  10  10  10  10  10  10  10  10   2 21 6 
   4  10  10  10  10  10  10  10  10  10  10   1 7 
   6  10  10  10  10  10  10  10  10  10  10   2 20 9 
   1  10  10  10  10  10  10  10  10  10  10   2 20 10 
   8  10  10  10  10  10  10  10  10  10  10   1 10 
   8  10  10  10  10  10  10  10  10  10  10   2 19 11 
   2  10  10  10  10  10  10  10  10  10  10   1 12 
  10  10  10  10  10  10  10  10  10  10  10   1 13 
   1  10  10  10  10  10  10  10  10  10  10   1 15 
   2  10  10  10  10  10  10  10  10  10  10   1 15 
   5  10  10  10  10  10  10  10  10  10  10   1 16 
   4  10  10  10  10  10  10  10  10  10  10   1 18 
   2  10  10  10  10  10  10  10  10  10  10   1 20 
   8  10  10  10  10  10  10  10  10  10  10   1 22
   2  10  10  10  10  10  10  10  10  10  10   1 22
   4  10  10  10  10  10  10  10  10  10  10   1 22
   1  10  10  10  10  10  10  10  10  10  10   1 22
   0   0   0   0   0   0   0   0   0   0   0   0 
